6883
6860
6942
6935
6787
6880
6912
6895
6947
6902
6914
6964
6881
6869
6935
7033
6865
6954
6913
6962
6940
6972
6958
6909
6990
6815
6888
6905
6766
6848
6876
6807
6888
6920
6983
6845
6940
6765
6965
7038
6912
6934
6897
6899
6930
6833
6992
6836
6899
6837
6801
6968
6798
7002
6930
6930
6877
6921
6785
7007
6894
6855
6894
6931
6897
6949
6746
6960
6855
6905
7076
6950
6870
6901
6915
7038
6850
6796
6906
6874
6866
6885
6764
6946
6960
6896
6949
6916
6922
6925
6855
6808
6856
6828
7012
6993
6873
6899
6922
6970
